Version identifier: 22.1.1.0 | 2022-11-28 | 9160aff4d
CPXPARAM_ClockType                               1
CPXPARAM_Read_DataCheck                          1
CPXPARAM_Threads                                 1
CPXPARAM_Simplex_Tolerances_Optimality           1.0000000000000001e-09
CPXPARAM_TimeLimit                               7200
CPXPARAM_MIP_Tolerances_AbsMIPGap                0
CPXPARAM_MIP_Tolerances_MIPGap                   0
CPXPARAM_MIP_Tolerances_Integrality              0
Tried aggregator 6 times.
MIQP Presolve eliminated 13828 rows and 610 columns.
MIQP Presolve modified 1311 coefficients.
Aggregator did 1704 substitutions.
Reduced MIQP has 63467 rows, 10646 columns, and 204244 nonzeros.
Reduced MIQP has 9451 binaries, 1195 generals, 0 SOSs, and 0 indicators.
Reduced MIQP objective Q matrix has 1195 nonzeros.
Presolve time = 0.57 sec. (353.88 ticks)
Probing time = 0.01 sec. (6.67 ticks)
Tried aggregator 1 time.
MIQP Presolve eliminated 75 rows and 0 columns.
Reduced MIQP has 63392 rows, 10646 columns, and 203954 nonzeros.
Reduced MIQP has 9451 binaries, 1195 generals, 0 SOSs, and 0 indicators.
Reduced MIQP objective Q matrix has 1195 nonzeros.
Presolve time = 0.18 sec. (106.25 ticks)
Classifier predicts products in MIQP should be linearized.
Probing time = 0.01 sec. (6.63 ticks)
Clique table members: 2913.
MIP emphasis: balance optimality and feasibility.
MIP search method: dynamic search.
Parallel mode: none, using 1 thread.
Root relaxation solution time = 768.25 sec. (2125345.07 ticks)

        Nodes                                         Cuts/
   Node  Left     Objective  IInf  Best Integer    Best Bound    ItCnt     Gap

      0     0     7381.7535  5903                   7381.7535       11         
      0     0     7379.8384  6010                  Cuts: 1956    15959         

Implied bound cuts applied:  162
Zero-half cuts applied:  1182

Root node processing (before b&c):
  Real time             = 7200.09 sec. (3750378.53 ticks)
Sequential b&c:
  Real time             =    0.00 sec. (0.00 ticks)
                          ------------
Total (root+branch&cut) = 7200.09 sec. (3750378.53 ticks)
Solution is infeasible.

---------------------
@@@ MIP_time_limit_infeasible
Traceback (most recent call last):
  File "/scratch/scherif/DiverseSAT-journal_sup/DiverseSAT_Supplementary_Experiments/experiment-1/cplex/jobs/../solvers/CPLEX-QP-SE.py", line 118, in <module>
    print(f">>> Benchmark {os.path.basename(cnf_file)} k {k} OPT {int(prob.solution.get_objective_value())}"
  File "/users/scherif/.local/lib/python3.9/site-packages/cplex/_internal/_subinterfaces.py", line 7211, in get_objective_value
    return CPX_PROC.getobjval(self._env._e, self._cplex._lp)
  File "/users/scherif/.local/lib/python3.9/site-packages/cplex/_internal/_procedural.py", line 2055, in getobjval
    check_status(env, status)
  File "/users/scherif/.local/lib/python3.9/site-packages/cplex/_internal/_procedural.py", line 249, in __call__
    raise CplexSolverError(error_string, env, status)
cplex.exceptions.errors.CplexSolverError: CPLEX Error  1217: No solution exists.
